
n_res = 4;
rcap = [48, 47, 522, 531];
rtype = [1, 1, 2, 2];
n_tasks = 100;
modes =  [{1, 2, 3}, {4, 5, 6}, {7, 8, 9}, {10, 11, 12}, {13, 14, 15}, {16, 17, 18}, {19, 20, 21}, {22, 23, 24}, {25, 26, 27}, {28, 29, 30}, {31, 32, 33}, {34, 35, 36}, {37, 38, 39}, {40, 41, 42}, {43, 44, 45}, {46, 47, 48}, {49, 50, 51}, {52, 53, 54}, {55, 56, 57}, {58, 59, 60}, {61, 62, 63}, {64, 65, 66}, {67, 68, 69}, {70, 71, 72}, {73, 74, 75}, {76, 77, 78}, {79, 80, 81}, {82, 83, 84}, {85, 86, 87}, {88, 89, 90}, {91, 92, 93}, {94, 95, 96}, {97, 98, 99}, {100, 101, 102}, {103, 104, 105}, {106, 107, 108}, {109, 110, 111}, {112, 113, 114}, {115, 116, 117}, {118, 119, 120}, {121, 122, 123}, {124, 125, 126}, {127, 128, 129}, {130, 131, 132}, {133, 134, 135}, {136, 137, 138}, {139, 140, 141}, {142, 143, 144}, {145, 146, 147}, {148, 149, 150}, {151, 152, 153}, {154, 155, 156}, {157, 158, 159}, {160, 161, 162}, {163, 164, 165}, {166, 167, 168}, {169, 170, 171}, {172, 173, 174}, {175, 176, 177}, {178, 179, 180}, {181, 182, 183}, {184, 185, 186}, {187, 188, 189}, {190, 191, 192}, {193, 194, 195}, {196, 197, 198}, {199, 200, 201}, {202, 203, 204}, {205, 206, 207}, {208, 209, 210}, {211, 212, 213}, {214, 215, 216}, {217, 218, 219}, {220, 221, 222}, {223, 224, 225}, {226, 227, 228}, {229, 230, 231}, {232, 233, 234}, {235, 236, 237}, {238, 239, 240}, {241, 242, 243}, {244, 245, 246}, {247, 248, 249}, {250, 251, 252}, {253, 254, 255}, {256, 257, 258}, {259, 260, 261}, {262, 263, 264}, {265, 266, 267}, {268, 269, 270}, {271, 272, 273}, {274, 275, 276}, {277, 278, 279}, {280, 281, 282}, {283, 284, 285}, {286, 287, 288}, {289, 290, 291}, {292, 293, 294}, {295, 296, 297}, {298, 299, 300}];
succ =  [{100, 81, 62, 59, 56, 55, 51, 50, 49, 45, 43, 38, 37, 35, 30, 12}, {90, 84, 82, 81, 70, 67, 66, 60, 59, 55, 51, 50, 48, 46, 44, 43, 42, 39, 38}, {99, 86, 85, 68, 60, 57, 56, 54, 51, 50, 48, 47, 43, 36, 35, 30, 28}, {99, 94, 85, 82, 70, 66, 64, 63, 61, 58, 49, 48, 47, 45, 39, 17}, {100, 99, 95, 94, 81, 67, 62, 60, 56, 48, 46, 44, 38, 37, 35}, {100, 99, 89, 86, 84, 82, 81, 66, 65, 61, 60, 53, 52, 47, 41, 26}, {95, 91, 88, 83, 82, 81, 68, 67, 58, 56, 51, 49, 44, 37, 31}, {99, 96, 95, 90, 86, 85, 83, 82, 70, 68, 66, 60, 58, 57, 52, 46, 43, 41, 39}, {98, 94, 88, 85, 81, 68, 56, 52, 47, 38, 35}, {99, 97, 93, 90, 88, 86, 85, 84, 83, 82, 81, 69, 68, 67, 61, 54, 52, 43, 41}, {92, 90, 89, 87, 81, 68, 67, 66, 65, 63, 61, 51, 47, 34}, {99, 89, 88, 83, 69, 64, 61, 60, 47, 28}, {99, 98, 96, 94, 88, 87, 85, 84, 83, 82, 78, 68, 62, 60, 47, 39}, {100, 99, 94, 88, 86, 83, 68, 65, 64, 57, 54, 52, 49, 47}, {99, 98, 94, 90, 89, 88, 81, 64, 57, 56, 54, 47, 38}, {100, 94, 93, 91, 84, 82, 81, 79, 58, 47, 37}, {97, 90, 89, 88, 84, 83, 81, 75, 74, 73, 67, 62, 60, 53, 51}, {98, 95, 93, 92, 91, 90, 88, 87, 84, 82, 61, 60, 59, 56, 43}, {99, 98, 97, 95, 90, 89, 85, 66, 65, 61, 50, 43}, {98, 97, 95, 94, 92, 89, 84, 75, 64, 60, 51, 48}, {99, 94, 93, 92, 84, 83, 81, 66, 65, 64, 48, 47}, {95, 91, 89, 82, 75, 65, 64, 62, 51, 41}, {98, 97, 94, 92, 91, 90, 89, 88, 87, 81, 77, 76, 75, 74, 70, 68, 67, 66, 60}, {99, 98, 96, 95, 92, 91, 88, 85, 83, 79, 78, 71, 43}, {96, 93, 91, 86, 80, 79, 78, 75, 70, 69, 65, 64, 41}, {97, 96, 93, 92, 90, 88, 85, 80, 74, 68, 67, 64, 56, 54}, {94, 92, 89, 85, 76, 67, 60, 51, 47}, {96, 95, 93, 90, 80, 67, 52, 41}, {89, 82, 65, 60, 54, 51, 47}, {98, 97, 96, 95, 94, 92, 91, 83, 82, 80, 79, 77, 76, 75, 74, 73, 72, 71}, {99, 98, 97, 94, 92, 89, 87, 79, 78, 77, 76, 75, 74, 73, 71, 69, 65}, {100, 97, 96, 95, 93, 92, 89, 80, 79, 78, 77, 76, 75, 74, 73, 72, 71}, {97, 96, 95, 92, 90, 88, 86, 80, 79, 78, 77, 76, 75, 72, 71, 64}, {99, 98, 96, 94, 93, 80, 78, 77, 76, 74, 64, 60}, {96, 92, 89, 84, 82, 80, 77, 76, 72, 71, 70, 66}, {96, 94, 93, 90, 76, 75, 72, 64, 55}, {97, 96, 92, 90, 85, 75, 74, 72, 71, 66, 64}, {96, 93, 92, 83, 75, 74, 71, 69, 61}, {92, 91, 89, 80, 77, 76, 73, 71, 56}, {96, 95, 94, 92, 86, 72, 71, 67, 66}, {98, 94, 92, 77, 76, 74, 73, 72, 71}, {99, 98, 95, 94, 93, 80, 75, 74, 73}, {94, 80, 77, 76, 75, 74, 72, 64}, {98, 86, 85, 79, 74, 73, 71, 65}, {91, 90, 86, 78, 76, 68, 65}, {97, 91, 78, 77, 76, 71, 65}, {97, 95, 80, 77, 75, 74, 71}, {88, 87, 80, 77, 76, 74, 73}, {93, 90, 84, 80, 75, 74, 71}, {93, 91, 79, 78, 77, 75, 71}, {96, 93, 79, 78, 77, 72}, {92, 91, 87, 79, 77, 74}, {98, 95, 92, 80, 77, 71}, {78, 76, 75, 73, 71}, {95, 78, 74, 71}, {79, 75, 72}, {93, 92, 76}, {92, 76, 73}, {80, 79, 75}, {72, 71}, {79, 73}, {86, 80}, {91, 71}, {73}, {72}, {78}, {78}, {79}, {72}, {73}, {}, {}, {}, {}, {}, {}, {}, {}, {}, {}, {}, {}, {}, {}, {}, {}, {}, {}, {}, {}, {}, {}, {}, {}, {}, {}, {}, {}, {}, {}];
n_opt = 300;
dur = [6, 7, 8, 5, 8, 10, 8, 8, 9, 2, 5, 9, 1, 4, 7, 1, 7, 8, 2, 4, 7, 2, 3, 6, 1, 2, 3, 3, 4, 7, 2, 6, 7, 1, 5, 8, 3, 6, 9, 1, 5, 8, 5, 6, 8, 3, 5, 9, 3, 5, 9, 6, 7, 9, 3, 4, 4, 2, 3, 8, 4, 9, 10, 4, 9, 10, 3, 5, 6, 2, 3, 9, 4, 6, 8, 1, 1, 6, 2, 3, 8, 3, 4, 8, 5, 6, 7, 4, 6, 7, 5, 8, 9, 1, 3, 6, 3, 7, 10, 2, 3, 5, 3, 5, 10, 4, 5, 7, 2, 7, 8, 1, 3, 4, 3, 7, 10, 1, 3, 9, 1, 6, 10, 1, 2, 5, 3, 5, 6, 7, 8, 9, 5, 8, 9, 2, 3, 5, 5, 6, 10, 3, 5, 7, 3, 6, 8, 5, 9, 10, 4, 6, 8, 3, 9, 10, 2, 7, 9, 1, 6, 6, 7, 8, 8, 6, 7, 8, 2, 7, 10, 2, 3, 8, 1, 6, 7, 4, 9, 10, 5, 5, 8, 1, 2, 3, 1, 2, 9, 1, 3, 7, 2, 7, 9, 2, 4, 6, 1, 6, 9, 6, 7, 8, 6, 7, 8, 1, 2, 8, 3, 5, 6, 1, 7, 8, 1, 5, 6, 3, 9, 10, 2, 7, 8, 3, 9, 10, 1, 2, 2, 3, 4, 5, 3, 5, 5, 3, 9, 10, 2, 4, 9, 3, 4, 10, 6, 8, 9, 2, 4, 5, 1, 8, 10, 4, 5, 7, 2, 9, 10, 4, 5, 10, 2, 3, 8, 5, 7, 8, 2, 4, 10, 3, 6, 8, 1, 4, 9, 2, 3, 8, 4, 9, 9, 1, 4, 10, 1, 6, 10, 3, 6, 8, 3, 5, 6, 1, 2, 4];
rreq = [|10, 0, 3, 10, 0, 8, 9, 0, 0, 7, 7, 5, 6, 0, 2, 0, 5, 0, 3, 3, 3, 0, 0, 0, 0, 5, 5, 10, 0, 6, 0, 0, 6, 9, 9, 0, 0, 4, 1, 0, 0, 0, 3, 0, 0, 0, 7, 7, 8, 0, 1, 0, 5, 0, 8, 0, 7, 10, 9, 0, 4, 0, 0, 0, 0, 0, 10, 0, 0, 10, 0, 0, 0, 9, 0, 9, 0, 9, 2, 1, 0, 5, 0, 4, 9, 0, 8, 8, 8, 7, 0, 0, 0, 8, 5, 0, 5, 5, 5, 9, 7, 6, 0, 3, 2, 0, 0, 0, 0, 1, 0, 0, 0, 4, 8, 7, 0, 0, 0, 0, 6, 6, 5, 0, 0, 0, 0, 5, 5, 0, 4, 0, 8, 5, 0, 6, 0, 0, 0, 4, 4, 9, 0, 2, 6, 0, 3, 9, 0, 0, 0, 0, 0, 3, 0, 0, 0, 0, 0, 4, 0, 2, 0, 5, 0, 7, 5, 5, 9, 7, 3, 9, 0, 6, 0, 9, 0, 0, 7, 7, 7, 0, 0, 0, 0, 2, 0, 0, 1, 8, 7, 6, 0, 0, 5, 0, 7, 7, 0, 6, 0, 10, 9, 0, 0, 0, 2, 5, 0, 3, 10, 10, 0, 0, 7, 3, 0, 9, 0, 0, 0, 4, 0, 9, 8, 3, 0, 0, 0, 8, 0, 0, 0, 1, 4, 4, 0, 0, 0, 0, 9, 7, 6, 0, 3, 0, 0, 0, 0, 0, 0, 0, 0, 0, 0, 0, 0, 0, 0, 0, 7, 7, 6, 5, 4, 2, 0, 0, 0, 3, 9, 0, 9, 0, 0, 0, 2, 1, 1, 7, 0, 6, 9, 7, 0, 0, 5, 5, 0, 0, 3, 6, 5, 0, 1, 1, 1, 0, 0, 4
 |0, 6, 0, 0, 3, 0, 0, 4, 2, 0, 0, 0, 0, 9, 0, 9, 0, 6, 0, 0, 0, 6, 3, 2, 6, 0, 0, 0, 8, 0, 9, 7, 0, 0, 0, 1, 6, 0, 0, 9, 5, 5, 0, 4, 3, 10, 0, 0, 0, 4, 0, 10, 0, 10, 0, 6, 0, 0, 0, 4, 0, 7, 6, 8, 5, 3, 0, 6, 5, 0, 4, 3, 8, 0, 7, 0, 3, 0, 0, 0, 4, 0, 3, 0, 0, 7, 0, 0, 0, 0, 9, 8, 8, 0, 0, 5, 0, 0, 0, 0, 0, 0, 6, 0, 0, 9, 8, 8, 9, 0, 9, 8, 7, 0, 0, 0, 3, 1, 1, 1, 0, 0, 0, 7, 5, 4, 9, 0, 0, 3, 0, 2, 0, 0, 3, 0, 1, 1, 8, 0, 0, 0, 5, 0, 0, 7, 0, 0, 4, 4, 5, 5, 5, 0, 6, 5, 4, 4, 2, 0, 3, 0, 6, 0, 5, 0, 0, 0, 0, 0, 0, 0, 4, 0, 4, 0, 2, 7, 0, 0, 0, 1, 1, 6, 4, 0, 8, 8, 0, 0, 0, 0, 5, 4, 0, 6, 0, 0, 8, 0, 8, 0, 0, 8, 8, 8, 0, 0, 3, 0, 0, 0, 8, 8, 0, 0, 7, 0, 4, 4, 4, 0, 7, 0, 0, 0, 3, 3, 2, 0, 2, 4, 3, 0, 0, 0, 3, 10, 9, 9, 0, 0, 0, 3, 0, 2, 7, 6, 5, 4, 4, 3, 3, 2, 2, 7, 6, 5, 8, 7, 0, 0, 0, 0, 0, 0, 3, 6, 3, 0, 0, 7, 0, 4, 3, 3, 0, 0, 0, 0, 7, 0, 0, 0, 3, 3, 0, 0, 5, 4, 0, 0, 0, 4, 0, 0, 0, 7, 7, 0
 |8, 8, 8, 6, 5, 4, 8, 8, 8, 7, 3, 3, 6, 6, 6, 3, 3, 2, 8, 4, 3, 7, 4, 1, 7, 6, 6, 6, 5, 3, 4, 3, 3, 4, 3, 2, 8, 6, 3, 2, 1, 1, 5, 5, 2, 7, 6, 5, 8, 6, 5, 10, 9, 8, 6, 5, 5, 4, 3, 3, 6, 5, 5, 10, 8, 8, 1, 1, 1, 10, 7, 6, 7, 4, 2, 2, 2, 2, 4, 3, 2, 3, 2, 2, 9, 8, 7, 5, 5, 5, 7, 7, 7, 7, 5, 5, 7, 7, 5, 3, 1, 1, 8, 7, 5, 6, 4, 3, 5, 4, 4, 5, 4, 4, 3, 3, 3, 9, 6, 6, 10, 4, 2, 1, 1, 1, 10, 9, 8, 7, 7, 6, 10, 6, 3, 9, 8, 8, 8, 7, 7, 8, 7, 3, 9, 8, 7, 8, 7, 7, 7, 6, 5, 8, 5, 2, 4, 4, 4, 7, 6, 6, 8, 5, 4, 3, 2, 2, 6, 3, 1, 4, 4, 4, 5, 4, 3, 5, 5, 5, 9, 5, 5, 8, 6, 3, 3, 3, 3, 8, 7, 7, 5, 4, 4, 5, 5, 4, 8, 7, 4, 4, 2, 2, 2, 2, 1, 1, 1, 1, 4, 2, 2, 6, 5, 4, 8, 6, 5, 8, 7, 7, 5, 3, 3, 6, 4, 4, 8, 8, 7, 4, 4, 4, 6, 6, 6, 3, 3, 2, 7, 5, 2, 4, 4, 4, 7, 7, 7, 9, 7, 7, 7, 4, 4, 10, 9, 8, 6, 5, 4, 7, 7, 7, 7, 6, 6, 7, 7, 5, 4, 3, 1, 8, 7, 7, 7, 6, 6, 6, 4, 2, 4, 2, 1, 8, 7, 7, 6, 6, 5, 5, 4, 3, 5, 5, 5, 9, 7, 2
 |9, 4, 2, 9, 4, 2, 9, 9, 9, 10, 6, 5, 9, 7, 4, 5, 5, 1, 6, 2, 2, 6, 3, 1, 9, 6, 4, 9, 9, 8, 2, 2, 2, 5, 3, 3, 9, 7, 7, 7, 7, 6, 6, 5, 4, 8, 7, 7, 5, 5, 5, 5, 4, 3, 8, 6, 5, 1, 1, 1, 3, 3, 3, 7, 6, 4, 6, 5, 4, 8, 8, 6, 5, 5, 5, 5, 4, 3, 5, 4, 3, 5, 4, 4, 8, 8, 7, 3, 2, 1, 4, 3, 2, 9, 6, 5, 8, 7, 7, 7, 4, 3, 9, 8, 6, 7, 5, 4, 1, 1, 1, 5, 5, 3, 7, 5, 4, 5, 4, 3, 8, 6, 4, 8, 5, 3, 6, 5, 3, 7, 7, 6, 7, 7, 7, 5, 3, 2, 9, 9, 8, 6, 5, 5, 6, 5, 5, 9, 8, 7, 6, 6, 6, 3, 1, 1, 3, 2, 1, 6, 6, 6, 2, 1, 1, 5, 3, 2, 6, 5, 5, 4, 3, 2, 10, 9, 9, 9, 9, 8, 8, 8, 7, 7, 6, 5, 8, 6, 5, 8, 4, 2, 4, 4, 3, 5, 3, 3, 9, 8, 8, 9, 9, 8, 7, 5, 4, 10, 8, 8, 10, 7, 4, 8, 8, 6, 5, 3, 3, 9, 9, 7, 1, 1, 1, 8, 5, 4, 3, 3, 3, 5, 5, 5, 2, 1, 1, 8, 7, 5, 6, 6, 2, 6, 6, 5, 10, 10, 10, 6, 5, 4, 5, 4, 1, 1, 1, 1, 4, 2, 1, 6, 5, 4, 7, 5, 3, 6, 2, 1, 4, 4, 2, 7, 7, 6, 5, 5, 3, 6, 6, 6, 9, 8, 7, 4, 3, 2, 9, 9, 8, 9, 6, 5, 6, 5, 3, 7, 5, 3|];